c FILE /home/rafael/Documents/HappySet/MIHS/inputs/happygen/output/graph_d_regular_k7_p0.5_v100_20241127_084106.txt
c SOURCE This is a d-regular graph formed for the happy graph colouring problem.
c DESCRIPTION It was generated using the problem generator of Rhyd Lewis
c
c GRAPH STATS
c Seed                             = 1119470334
c Number of Nodes                  = 100
c Number of colours k              = 7
c Number of pre-assignments        = 50
c Degree of all vertices           = 6
c Density                          = 0.0606061
c 
c The degrees of nodes 1 to 100, respectively, are as follows 
c [6, 6, 6, 6, 6, 6, 6, 6, 6, 6, 6, 6, 6, 6, 6, 6, 6, 6, 6, 6, 6, 6, 6, 6, 6, 6, 
c  6, 6, 6, 6, 6, 6, 6, 6, 6, 6, 6, 6, 6, 6, 6, 6, 6, 6, 6, 6, 6, 6, 6, 6, 6, 
c  6, 6, 6, 6, 6, 6, 6, 6, 6, 6, 6, 6, 6, 6, 6, 6, 6, 6, 6, 6, 6, 6, 6, 6, 6, 
c  6, 6, 6, 6, 6, 6, 6, 6, 6, 6, 6, 6, 6, 6, 6, 6, 6, 6, 6, 6, 6, 6, 6, 6] 
c  
p edge 100 300 7
e 1 3
e 1 10
e 1 40
e 1 52
e 1 78
e 1 97
e 2 6
e 2 17
e 2 47
e 2 53
e 2 74
e 2 96
e 3 18
e 3 75
e 3 81
e 3 86
e 3 88
e 4 52
e 4 54
e 4 71
e 4 91
e 4 96
e 4 100
e 5 37
e 5 42
e 5 61
e 5 76
e 5 79
e 5 89
e 6 17
e 6 44
e 6 66
e 6 69
e 6 79
e 7 9
e 7 17
e 7 28
e 7 30
e 7 61
e 7 87
e 8 39
e 8 43
e 8 44
e 8 56
e 8 63
e 8 94
e 9 28
e 9 46
e 9 53
e 9 57
e 9 93
e 10 12
e 10 21
e 10 68
e 10 84
e 10 100
e 11 28
e 11 35
e 11 64
e 11 67
e 11 81
e 11 88
e 12 28
e 12 59
e 12 75
e 12 81
e 12 94
e 13 26
e 13 29
e 13 38
e 13 64
e 13 73
e 13 74
e 14 17
e 14 27
e 14 33
e 14 34
e 14 35
e 14 88
e 15 19
e 15 43
e 15 51
e 15 57
e 15 67
e 15 80
e 16 20
e 16 25
e 16 61
e 16 79
e 16 89
e 16 93
e 17 71
e 17 77
e 18 19
e 18 27
e 18 37
e 18 71
e 18 81
e 19 43
e 19 87
e 19 99
e 19 100
e 20 25
e 20 32
e 20 36
e 20 38
e 20 40
e 21 41
e 21 53
e 21 54
e 21 74
e 21 92
e 22 29
e 22 32
e 22 73
e 22 76
e 22 87
e 22 93
e 23 45
e 23 49
e 23 59
e 23 66
e 23 86
e 23 98
e 24 31
e 24 45
e 24 49
e 24 78
e 24 84
e 24 87
e 25 58
e 25 68
e 25 76
e 25 91
e 26 30
e 26 50
e 26 64
e 26 73
e 26 94
e 27 34
e 27 47
e 27 48
e 27 98
e 28 70
e 28 75
e 29 52
e 29 60
e 29 95
e 29 100
e 30 31
e 30 52
e 30 54
e 30 56
e 31 39
e 31 50
e 31 75
e 31 82
e 32 60
e 32 68
e 32 81
e 32 91
e 33 50
e 33 62
e 33 64
e 33 65
e 33 90
e 34 54
e 34 55
e 34 85
e 34 90
e 35 42
e 35 49
e 35 72
e 35 99
e 36 58
e 36 69
e 36 70
e 36 82
e 36 92
e 37 39
e 37 65
e 37 76
e 37 94
e 38 63
e 38 64
e 38 72
e 38 88
e 39 44
e 39 46
e 39 100
e 40 70
e 40 73
e 40 76
e 40 90
e 41 55
e 41 60
e 41 73
e 41 85
e 41 90
e 42 46
e 42 70
e 42 72
e 42 95
e 43 71
e 43 77
e 43 92
e 44 78
e 44 86
e 44 100
e 45 66
e 45 77
e 45 87
e 45 93
e 46 69
e 46 79
e 46 98
e 47 56
e 47 61
e 47 77
e 47 98
e 48 50
e 48 60
e 48 70
e 48 88
e 48 91
e 49 56
e 49 62
e 49 97
e 50 89
e 50 99
e 51 59
e 51 66
e 51 91
e 51 95
e 51 96
e 52 78
e 52 96
e 53 61
e 53 90
e 53 95
e 54 94
e 54 96
e 55 62
e 55 66
e 55 68
e 55 97
e 56 67
e 56 83
e 57 58
e 57 63
e 57 65
e 57 72
e 58 68
e 58 76
e 58 82
e 59 65
e 59 75
e 59 85
e 60 84
e 60 98
e 61 67
e 62 83
e 62 94
e 62 95
e 63 96
e 63 97
e 63 99
e 64 92
e 65 80
e 65 88
e 66 80
e 67 80
e 67 82
e 68 86
e 69 80
e 69 85
e 69 89
e 70 81
e 71 80
e 71 82
e 72 73
e 72 89
e 74 83
e 74 84
e 74 97
e 75 78
e 77 91
e 77 93
e 78 95
e 79 83
e 79 84
e 82 92
e 83 85
e 83 98
e 84 86
e 85 99
e 86 93
e 87 90
e 89 92
e 97 99
n 1 5
n 2 5
n 6 5
n 7 5
n 8 5
n 11 3
n 14 5
n 19 2
n 20 4
n 21 5
n 23 7
n 24 3
n 25 4
n 27 5
n 29 2
n 30 5
n 34 5
n 36 4
n 37 4
n 42 1
n 47 5
n 50 1
n 51 5
n 53 5
n 54 5
n 56 5
n 57 1
n 60 2
n 61 5
n 62 4
n 64 3
n 68 4
n 71 4
n 72 1
n 73 1
n 74 5
n 75 6
n 76 4
n 77 5
n 79 5
n 80 4
n 81 3
n 82 4
n 85 5
n 89 1
n 90 5
n 93 5
n 96 5
n 97 5
n 100 2
